13
0  41  25  63  37  18  52  29  48  12  33  21  57
41  0  55  31  44  28  63  12  40  22  58  14  36
25  55  0  38  27  55  13  41  24  62  31  19  50
63  31  38  0  44  30  49  14  37  18  41  26  35
37  44  27  44  0  47  20  55  33  19  58  27  40
18  28  55  30  47  0  39  23  61  32  18  46  21
52  63  13  49  20  39  0  55  18  37  49  12  40
29  12  41  14  55  23  55  0  45  26  33  19  47
48  40  24  37  33  61  18  45  0  28  36  14  59
12  22  62  18  19  32  37  26  28  0  57  32  41
33  58  31  41  58  18  49  33  36  57  0  54  28
21  14  19  26  27  46  12  19  14  32  54  0  55
57  36  50  35  40  21  40  47  59  41  28  55  0